c This is QMaxSAT 2017 based on 14.07
c This is Glucose 3.0
c This is MiniSat 2.2.0
c WARNING: for repeatability, setting FPU to use double precision
c card = mrwto, comp = 0, pmodel = 0, narr = 2, mct = 24, verb = 0
cr firstCPXsol 0 0 0
c top = 81479
c |  Number of variables:    1572811                                          |
c |  Number of clauses:      75996696                                         |
c |  Weight of hard clauses: 81479                                            |
c |  Number of soft clauses: 1104                                             |
c |  Number of unit soft clauses: 1104                                        |
c |  Maximum Cardinality (by unit): 162956       (162956      )               |
c last restart ## conflicts  :  88 165000 
o 2053 | cpuTime 12.135 s
c Sum of weights = 81478
c A number of soft clauses remained = 552
c MRWTO encoding for Pseudo-Boolean Constraints
c sizeMax=2053
c No.0 Divisor=13	generated by pow1
c No.1 Divisor=13	generated by pow1
c No.2 Divisor=13	generated by pow1
c p0= 13	p1= 13	p2= 13	
c number of digits = 4
c linkingVar[0].size = 13, linkingVar[1].size = 13, linkingVar[2].size = 13, linkingVar[3].size = 1, 
c Pseudo-Boolean Constraints: 12764 variables and 134398 clauses
c Sum of weights = 81478
c A number of soft clauses remained = 552
c MRWTO encoding for Pseudo-Boolean Constraints
c sizeMax=2053
c No.0 Divisor=13	generated by pow1
c No.1 Divisor=13	generated by pow1
c No.2 Divisor=13	generated by pow1
c p0= 13	p1= 13	p2= 13	
c number of digits = 4
c linkingVar[0].size = 13, linkingVar[1].size = 13, linkingVar[2].size = 13, linkingVar[3].size = 1, 
c Pseudo-Boolean Constraints: 12764 variables and 134398 clauses
c last restart ## conflicts  :  240 165796 
o 1523 | cpuTime 2318.41 s
c last restart ## conflicts  :  692 167828 
o 1202 | cpuTime 3337.97 s
c last restart ## conflicts  :  368 175658 
o 1172 | cpuTime 3404.46 s
c last restart ## conflicts  :  625 163413 
o 1008 | cpuTime 3412.55 s
s UNKNOWN
c Search is stopped by a limit (maybe time-limit)
cr positiVarArr: [ | 24@1(1->24) | 39@1(2->15) | 59@1(3->11) | 147@1(7->3) | 184@1(8->16) | 224@1(10->8) | 242@1(11->2) | 355@1(15->19) | 361@1(16->1) | 394@1(17->10) | 425@1(18->17) | 454@1(19->22) | 522@1(22->18) | 559@1(24->7) | 582@2(1->6) | 660@2(4->12) | 673@2(5->1) | 700@2(6->4) | 791@2(9->23) | 853@2(12->13) | 873@2(13->9) | 908@2(14->20) | 1053@2(20->21) | 1061@2(21->5) | 1118@2(23->14) | ]
cr the 1-th chain: [ 1->24->7->3->11->2->15->19->22->18->17->10->8->16->1 ] (#non-depot=13) {#cumul.=14}
cr the 2-th chain: [ 1->6->4->12->13->9->23->14->20->21->5->1 ] (#non-depot=10) {#cumul.=24}
c Latest Answer = 0 by 5 loops
c restarts              : 5372
c conflicts             : 710537         (197 /sec)
c decisions             : 9524730        (0.00 % random) (2644 /sec)
c propagations          : 17952847311    (4982842 /sec)
c conflict literals     : 59523772       (15.89 % deleted)
c Memory used           : 4969.00 MB
c CPU time              : 3602.93 s
